p wcnf 112 135 136 
1 -92 -86 0 
1 -72 -87 0 
1 69 -59 0 
1 73 -53 0 
1 -40 -2 0 
1 26 90 0 
1 -34 -77 0 
1 9 99 0 
1 -106 111 0 
1 40 -69 0 
1 -61 -69 0 
1 -13 102 0 
1 -62 34 0 
1 82 27 0 
1 -3 -73 0 
1 75 27 0 
1 -75 -53 0 
1 -53 108 0 
1 -75 -97 0 
1 39 -19 0 
1 -77 80 0 
1 100 -74 0 
1 -6 -15 0 
1 -42 -1 0 
1 -16 26 0 
1 -25 -60 0 
1 75 -37 0 
1 29 108 0 
1 -13 -94 0 
1 -21 -52 0 
1 77 -63 0 
1 35 -49 0 
1 106 -2 0 
1 92 -80 0 
1 -107 -16 0 
1 7 -70 0 
1 -83 98 0 
1 -9 79 0 
1 85 38 0 
1 -80 86 0 
1 32 30 0 
1 -15 -92 0 
1 -92 27 0 
1 56 52 0 
1 -50 59 0 
1 57 -64 0 
1 6 23 0 
1 -55 26 0 
1 -12 56 0 
1 83 85 0 
1 -57 -12 0 
1 -79 92 0 
1 33 -92 0 
1 45 1 0 
1 -4 93 0 
1 7 77 0 
1 3 93 0 
1 96 -13 0 
1 -103 -91 0 
1 -13 -30 0 
1 65 58 0 
1 42 -44 0 
1 -108 -56 0 
1 79 -63 0 
1 -15 -43 0 
1 -109 97 0 
1 86 51 0 
1 12 5 0 
1 -61 38 0 
1 89 18 0 
1 -85 82 0 
1 -59 79 0 
1 -48 98 0 
1 58 8 0 
1 -87 50 0 
1 -27 91 0 
1 89 75 0 
1 -2 -42 0 
1 28 99 0 
1 -18 36 0 
1 89 -14 0 
1 -40 -51 0 
1 -8 52 0 
1 -56 45 0 
1 59 8 0 
1 54 -68 0 
1 -51 31 0 
1 36 31 0 
1 36 102 0 
1 4 55 0 
1 8 100 0 
1 -50 69 0 
1 -49 -85 0 
1 -2 -107 0 
1 -6 -65 0 
1 63 98 0 
1 -102 107 0 
1 -98 17 0 
1 64 -97 0 
1 -112 1 0 
1 23 -36 0 
1 -97 62 0 
1 -38 -76 0 
1 -48 106 0 
1 -2 91 0 
1 -13 105 0 
1 84 10 0 
1 58 74 0 
1 45 -77 0 
1 87 24 0 
1 -45 109 0 
1 -29 17 0 
1 -17 6 0 
1 -18 -112 0 
1 -20 88 0 
1 53 -69 0 
1 -56 48 0 
1 24 12 0 
1 -105 -71 0 
1 -38 -70 0 
1 -31 -105 0 
1 27 -95 0 
1 6 -14 0 
1 -67 28 0 
1 51 73 0 
1 -32 -95 0 
1 61 86 0 
1 95 -74 0 
1 33 -38 0 
1 99 10 0 
1 26 -39 0 
1 34 -69 0 
1 -85 -58 0 
1 -85 111 0 
1 -3 41 0 
